<instance format="XCSP3" type="COP">
  <variables>
    <array id="x" size="[120]"> 0..119 </array>
  </variables>
  <constraints>
    <group>
      <intension> ne(%0,%1) </intension>
      <args> x[0] x[4] </args>
      <args> x[0] x[14] </args>
      <args> x[0] x[15] </args>
      <args> x[0] x[19] </args>
      <args> x[0] x[20] </args>
      <args> x[0] x[56] </args>
      <args> x[0] x[61] </args>
      <args> x[0] x[79] </args>
      <args> x[0] x[88] </args>
      <args> x[0] x[93] </args>
      <args> x[0] x[112] </args>
      <args> x[1] x[5] </args>
      <args> x[1] x[23] </args>
      <args> x[1] x[29] </args>
      <args> x[1] x[40] </args>
      <args> x[1] x[53] </args>
      <args> x[1] x[54] </args>
      <args> x[1] x[76] </args>
      <args> x[1] x[91] </args>
      <args> x[2] x[21] </args>
      <args> x[2] x[30] </args>
      <args> x[2] x[41] </args>
      <args> x[2] x[43] </args>
      <args> x[2] x[66] </args>
      <args> x[2] x[70] </args>
      <args> x[2] x[89] </args>
      <args> x[2] x[90] </args>
      <args> x[2] x[99] </args>
      <args> x[2] x[102] </args>
      <args> x[2] x[104] </args>
      <args> x[2] x[114] </args>
      <args> x[3] x[11] </args>
      <args> x[3] x[37] </args>
      <args> x[3] x[48] </args>
      <args> x[3] x[49] </args>
      <args> x[3] x[60] </args>
      <args> x[3] x[62] </args>
      <args> x[3] x[83] </args>
      <args> x[3] x[84] </args>
      <args> x[3] x[95] </args>
      <args> x[3] x[98] </args>
      <args> x[3] x[106] </args>
      <args> x[4] x[25] </args>
      <args> x[4] x[31] </args>
      <args> x[4] x[33] </args>
      <args> x[4] x[37] </args>
      <args> x[4] x[52] </args>
      <args> x[4] x[55] </args>
      <args> x[4] x[71] </args>
      <args> x[4] x[75] </args>
      <args> x[4] x[84] </args>
      <args> x[5] x[10] </args>
      <args> x[5] x[12] </args>
      <args> x[5] x[13] </args>
      <args> x[5] x[23] </args>
      <args> x[5] x[40] </args>
      <args> x[5] x[54] </args>
      <args> x[5] x[59] </args>
      <args> x[5] x[86] </args>
      <args> x[5] x[91] </args>
      <args> x[6] x[9] </args>
      <args> x[6] x[20] </args>
      <args> x[6] x[24] </args>
      <args> x[6] x[27] </args>
      <args> x[6] x[47] </args>
      <args> x[6] x[50] </args>
      <args> x[6] x[63] </args>
      <args> x[6] x[65] </args>
      <args> x[6] x[74] </args>
      <args> x[6] x[82] </args>
      <args> x[6] x[117] </args>
      <args> x[6] x[119] </args>
      <args> x[7] x[17] </args>
      <args> x[7] x[37] </args>
      <args> x[7] x[45] </args>
      <args> x[7] x[52] </args>
      <args> x[7] x[70] </args>
      <args> x[7] x[72] </args>
      <args> x[7] x[85] </args>
      <args> x[7] x[97] </args>
      <args> x[7] x[99] </args>
      <args> x[7] x[103] </args>
      <args> x[8] x[16] </args>
      <args> x[8] x[30] </args>
      <args> x[8] x[32] </args>
      <args> x[8] x[37] </args>
      <args> x[8] x[50] </args>
      <args> x[8] x[57] </args>
      <args> x[8] x[68] </args>
      <args> x[8] x[69] </args>
      <args> x[8] x[100] </args>
      <args> x[8] x[115] </args>
      <args> x[8] x[118] </args>
      <args> x[9] x[20] </args>
      <args> x[9] x[24] </args>
      <args> x[9] x[34] </args>
      <args> x[9] x[35] </args>
      <args> x[9] x[47] </args>
      <args> x[9] x[63] </args>
      <args> x[9] x[74] </args>
      <args> x[9] x[82] </args>
      <args> x[9] x[117] </args>
      <args> x[9] x[119] </args>
      <args> x[10] x[12] </args>
      <args> x[10] x[13] </args>
      <args> x[10] x[29] </args>
      <args> x[10] x[40] </args>
      <args> x[10] x[53] </args>
      <args> x[10] x[54] </args>
      <args> x[10] x[59] </args>
      <args> x[10] x[86] </args>
      <args> x[11] x[18] </args>
      <args> x[11] x[22] </args>
      <args> x[11] x[28] </args>
      <args> x[11] x[34] </args>
      <args> x[11] x[42] </args>
      <args> x[11] x[67] </args>
      <args> x[11] x[87] </args>
      <args> x[11] x[96] </args>
      <args> x[11] x[101] </args>
      <args> x[11] x[116] </args>
      <args> x[12] x[13] </args>
      <args> x[12] x[29] </args>
      <args> x[12] x[40] </args>
      <args> x[12] x[53] </args>
      <args> x[12] x[54] </args>
      <args> x[12] x[59] </args>
      <args> x[12] x[76] </args>
      <args> x[12] x[86] </args>
      <args> x[13] x[23] </args>
      <args> x[13] x[40] </args>
      <args> x[13] x[53] </args>
      <args> x[13] x[54] </args>
      <args> x[13] x[59] </args>
      <args> x[13] x[76] </args>
      <args> x[13] x[86] </args>
      <args> x[14] x[36] </args>
      <args> x[14] x[38] </args>
      <args> x[14] x[51] </args>
      <args> x[14] x[52] </args>
      <args> x[14] x[58] </args>
      <args> x[14] x[64] </args>
      <args> x[14] x[65] </args>
      <args> x[14] x[87] </args>
      <args> x[14] x[94] </args>
      <args> x[14] x[107] </args>
      <args> x[14] x[111] </args>
      <args> x[15] x[25] </args>
      <args> x[15] x[26] </args>
      <args> x[15] x[33] </args>
      <args> x[15] x[46] </args>
      <args> x[15] x[56] </args>
      <args> x[15] x[61] </args>
      <args> x[15] x[64] </args>
      <args> x[15] x[79] </args>
      <args> x[15] x[88] </args>
      <args> x[15] x[93] </args>
      <args> x[15] x[112] </args>
      <args> x[16] x[27] </args>
      <args> x[16] x[30] </args>
      <args> x[16] x[32] </args>
      <args> x[16] x[33] </args>
      <args> x[16] x[41] </args>
      <args> x[16] x[68] </args>
      <args> x[16] x[78] </args>
      <args> x[16] x[100] </args>
      <args> x[16] x[102] </args>
      <args> x[16] x[114] </args>
      <args> x[17] x[19] </args>
      <args> x[17] x[26] </args>
      <args> x[17] x[52] </args>
      <args> x[17] x[70] </args>
      <args> x[17] x[72] </args>
      <args> x[17] x[83] </args>
      <args> x[17] x[85] </args>
      <args> x[17] x[92] </args>
      <args> x[17] x[97] </args>
      <args> x[17] x[99] </args>
      <args> x[18] x[22] </args>
      <args> x[18] x[28] </args>
      <args> x[18] x[34] </args>
      <args> x[18] x[42] </args>
      <args> x[18] x[60] </args>
      <args> x[18] x[79] </args>
      <args> x[18] x[89] </args>
      <args> x[18] x[96] </args>
      <args> x[18] x[101] </args>
      <args> x[18] x[113] </args>
      <args> x[18] x[116] </args>
      <args> x[19] x[46] </args>
      <args> x[19] x[55] </args>
      <args> x[19] x[56] </args>
      <args> x[19] x[61] </args>
      <args> x[19] x[64] </args>
      <args> x[19] x[66] </args>
      <args> x[19] x[79] </args>
      <args> x[19] x[88] </args>
      <args> x[19] x[93] </args>
      <args> x[19] x[112] </args>
      <args> x[20] x[24] </args>
      <args> x[20] x[47] </args>
      <args> x[20] x[74] </args>
      <args> x[20] x[82] </args>
      <args> x[20] x[117] </args>
      <args> x[20] x[119] </args>
      <args> x[21] x[38] </args>
      <args> x[21] x[41] </args>
      <args> x[21] x[43] </args>
      <args> x[21] x[66] </args>
      <args> x[21] x[73] </args>
      <args> x[21] x[89] </args>
      <args> x[21] x[90] </args>
      <args> x[21] x[102] </args>
      <args> x[21] x[104] </args>
      <args> x[22] x[26] </args>
      <args> x[22] x[34] </args>
      <args> x[22] x[37] </args>
      <args> x[22] x[42] </args>
      <args> x[22] x[43] </args>
      <args> x[22] x[56] </args>
      <args> x[22] x[58] </args>
      <args> x[22] x[94] </args>
      <args> x[22] x[96] </args>
      <args> x[22] x[101] </args>
      <args> x[22] x[116] </args>
      <args> x[23] x[29] </args>
      <args> x[23] x[53] </args>
      <args> x[23] x[59] </args>
      <args> x[23] x[76] </args>
      <args> x[23] x[91] </args>
      <args> x[24] x[27] </args>
      <args> x[24] x[30] </args>
      <args> x[24] x[47] </args>
      <args> x[24] x[49] </args>
      <args> x[24] x[74] </args>
      <args> x[24] x[82] </args>
      <args> x[24] x[117] </args>
      <args> x[24] x[119] </args>
      <args> x[25] x[33] </args>
      <args> x[25] x[50] </args>
      <args> x[25] x[55] </args>
      <args> x[25] x[63] </args>
      <args> x[25] x[71] </args>
      <args> x[25] x[75] </args>
      <args> x[25] x[91] </args>
      <args> x[25] x[92] </args>
      <args> x[25] x[108] </args>
      <args> x[26] x[37] </args>
      <args> x[26] x[46] </args>
      <args> x[26] x[64] </args>
      <args> x[26] x[71] </args>
      <args> x[26] x[75] </args>
      <args> x[26] x[83] </args>
      <args> x[26] x[87] </args>
      <args> x[26] x[94] </args>
      <args> x[26] x[112] </args>
      <args> x[27] x[31] </args>
      <args> x[27] x[57] </args>
      <args> x[27] x[67] </args>
      <args> x[27] x[74] </args>
      <args> x[27] x[78] </args>
      <args> x[27] x[88] </args>
      <args> x[27] x[108] </args>
      <args> x[27] x[119] </args>
      <args> x[28] x[36] </args>
      <args> x[28] x[38] </args>
      <args> x[28] x[51] </args>
      <args> x[28] x[64] </args>
      <args> x[28] x[73] </args>
      <args> x[28] x[94] </args>
      <args> x[28] x[107] </args>
      <args> x[28] x[111] </args>
      <args> x[29] x[40] </args>
      <args> x[29] x[53] </args>
      <args> x[29] x[54] </args>
      <args> x[29] x[76] </args>
      <args> x[29] x[91] </args>
      <args> x[29] x[92] </args>
      <args> x[30] x[32] </args>
      <args> x[30] x[50] </args>
      <args> x[30] x[57] </args>
      <args> x[30] x[69] </args>
      <args> x[30] x[78] </args>
      <args> x[30] x[105] </args>
      <args> x[30] x[109] </args>
      <args> x[31] x[35] </args>
      <args> x[31] x[68] </args>
      <args> x[31] x[77] </args>
      <args> x[31] x[78] </args>
      <args> x[31] x[84] </args>
      <args> x[31] x[100] </args>
      <args> x[31] x[109] </args>
      <args> x[31] x[113] </args>
      <args> x[31] x[114] </args>
      <args> x[32] x[37] </args>
      <args> x[32] x[50] </args>
      <args> x[32] x[68] </args>
      <args> x[32] x[90] </args>
      <args> x[32] x[105] </args>
      <args> x[32] x[109] </args>
      <args> x[32] x[112] </args>
      <args> x[32] x[115] </args>
      <args> x[33] x[36] </args>
      <args> x[33] x[55] </args>
      <args> x[33] x[64] </args>
      <args> x[33] x[71] </args>
      <args> x[33] x[75] </args>
      <args> x[33] x[87] </args>
      <args> x[33] x[92] </args>
      <args> x[33] x[105] </args>
      <args> x[33] x[108] </args>
      <args> x[34] x[42] </args>
      <args> x[34] x[79] </args>
      <args> x[34] x[88] </args>
      <args> x[34] x[96] </args>
      <args> x[34] x[101] </args>
      <args> x[34] x[116] </args>
      <args> x[35] x[48] </args>
      <args> x[35] x[63] </args>
      <args> x[35] x[97] </args>
      <args> x[35] x[110] </args>
      <args> x[35] x[114] </args>
      <args> x[35] x[115] </args>
      <args> x[36] x[38] </args>
      <args> x[36] x[51] </args>
      <args> x[36] x[56] </args>
      <args> x[36] x[58] </args>
      <args> x[36] x[64] </args>
      <args> x[36] x[94] </args>
      <args> x[36] x[103] </args>
      <args> x[36] x[107] </args>
      <args> x[36] x[111] </args>
      <args> x[37] x[50] </args>
      <args> x[37] x[57] </args>
      <args> x[37] x[69] </args>
      <args> x[37] x[80] </args>
      <args> x[37] x[105] </args>
      <args> x[37] x[115] </args>
      <args> x[38] x[51] </args>
      <args> x[38] x[58] </args>
      <args> x[38] x[64] </args>
      <args> x[38] x[89] </args>
      <args> x[38] x[97] </args>
      <args> x[38] x[111] </args>
      <args> x[38] x[116] </args>
      <args> x[39] x[44] </args>
      <args> x[39] x[45] </args>
      <args> x[39] x[65] </args>
      <args> x[39] x[72] </args>
      <args> x[39] x[73] </args>
      <args> x[39] x[80] </args>
      <args> x[39] x[81] </args>
      <args> x[39] x[106] </args>
      <args> x[39] x[118] </args>
      <args> x[40] x[54] </args>
      <args> x[40] x[59] </args>
      <args> x[40] x[86] </args>
      <args> x[41] x[43] </args>
      <args> x[41] x[66] </args>
      <args> x[41] x[89] </args>
      <args> x[41] x[90] </args>
      <args> x[41] x[102] </args>
      <args> x[41] x[104] </args>
      <args> x[41] x[105] </args>
      <args> x[42] x[69] </args>
      <args> x[42] x[96] </args>
      <args> x[42] x[101] </args>
      <args> x[42] x[104] </args>
      <args> x[42] x[110] </args>
      <args> x[42] x[116] </args>
      <args> x[43] x[66] </args>
      <args> x[43] x[75] </args>
      <args> x[43] x[87] </args>
      <args> x[43] x[89] </args>
      <args> x[43] x[90] </args>
      <args> x[43] x[96] </args>
      <args> x[43] x[102] </args>
      <args> x[43] x[104] </args>
      <args> x[44] x[45] </args>
      <args> x[44] x[51] </args>
      <args> x[44] x[65] </args>
      <args> x[44] x[73] </args>
      <args> x[44] x[80] </args>
      <args> x[44] x[81] </args>
      <args> x[44] x[85] </args>
      <args> x[44] x[99] </args>
      <args> x[44] x[116] </args>
      <args> x[44] x[118] </args>
      <args> x[45] x[65] </args>
      <args> x[45] x[73] </args>
      <args> x[45] x[80] </args>
      <args> x[45] x[81] </args>
      <args> x[45] x[101] </args>
      <args> x[45] x[103] </args>
      <args> x[45] x[110] </args>
      <args> x[45] x[118] </args>
      <args> x[46] x[56] </args>
      <args> x[46] x[58] </args>
      <args> x[46] x[61] </args>
      <args> x[46] x[79] </args>
      <args> x[46] x[88] </args>
      <args> x[46] x[93] </args>
      <args> x[46] x[112] </args>
      <args> x[47] x[74] </args>
      <args> x[47] x[82] </args>
      <args> x[47] x[83] </args>
      <args> x[47] x[113] </args>
      <args> x[47] x[117] </args>
      <args> x[47] x[119] </args>
      <args> x[48] x[49] </args>
      <args> x[48] x[60] </args>
      <args> x[48] x[62] </args>
      <args> x[48] x[75] </args>
      <args> x[48] x[84] </args>
      <args> x[48] x[95] </args>
      <args> x[48] x[98] </args>
      <args> x[48] x[106] </args>
      <args> x[48] x[108] </args>
      <args> x[48] x[112] </args>
      <args> x[49] x[50] </args>
      <args> x[49] x[60] </args>
      <args> x[49] x[62] </args>
      <args> x[49] x[77] </args>
      <args> x[49] x[95] </args>
      <args> x[49] x[98] </args>
      <args> x[49] x[106] </args>
      <args> x[50] x[69] </args>
      <args> x[50] x[93] </args>
      <args> x[50] x[105] </args>
      <args> x[50] x[109] </args>
      <args> x[51] x[58] </args>
      <args> x[51] x[72] </args>
      <args> x[51] x[94] </args>
      <args> x[51] x[97] </args>
      <args> x[51] x[99] </args>
      <args> x[51] x[107] </args>
      <args> x[52] x[70] </args>
      <args> x[52] x[72] </args>
      <args> x[52] x[85] </args>
      <args> x[52] x[97] </args>
      <args> x[52] x[99] </args>
      <args> x[52] x[103] </args>
      <args> x[52] x[111] </args>
      <args> x[53] x[76] </args>
      <args> x[53] x[91] </args>
      <args> x[54] x[59] </args>
      <args> x[54] x[86] </args>
      <args> x[55] x[67] </args>
      <args> x[55] x[71] </args>
      <args> x[55] x[75] </args>
      <args> x[55] x[83] </args>
      <args> x[55] x[87] </args>
      <args> x[55] x[92] </args>
      <args> x[55] x[108] </args>
      <args> x[56] x[61] </args>
      <args> x[56] x[88] </args>
      <args> x[56] x[93] </args>
      <args> x[56] x[106] </args>
      <args> x[56] x[112] </args>
      <args> x[57] x[67] </args>
      <args> x[57] x[69] </args>
      <args> x[57] x[75] </args>
      <args> x[57] x[100] </args>
      <args> x[57] x[105] </args>
      <args> x[57] x[109] </args>
      <args> x[57] x[114] </args>
      <args> x[57] x[115] </args>
      <args> x[58] x[64] </args>
      <args> x[58] x[65] </args>
      <args> x[58] x[88] </args>
      <args> x[58] x[94] </args>
      <args> x[58] x[107] </args>
      <args> x[58] x[111] </args>
      <args> x[59] x[76] </args>
      <args> x[59] x[86] </args>
      <args> x[59] x[91] </args>
      <args> x[60] x[62] </args>
      <args> x[60] x[77] </args>
      <args> x[60] x[84] </args>
      <args> x[60] x[95] </args>
      <args> x[60] x[98] </args>
      <args> x[60] x[106] </args>
      <args> x[60] x[109] </args>
      <args> x[61] x[79] </args>
      <args> x[61] x[88] </args>
      <args> x[61] x[93] </args>
      <args> x[61] x[95] </args>
      <args> x[61] x[102] </args>
      <args> x[61] x[113] </args>
      <args> x[62] x[92] </args>
      <args> x[62] x[95] </args>
      <args> x[62] x[98] </args>
      <args> x[62] x[102] </args>
      <args> x[62] x[105] </args>
      <args> x[62] x[106] </args>
      <args> x[63] x[69] </args>
      <args> x[63] x[83] </args>
      <args> x[63] x[113] </args>
      <args> x[63] x[118] </args>
      <args> x[63] x[119] </args>
      <args> x[64] x[75] </args>
      <args> x[64] x[94] </args>
      <args> x[64] x[107] </args>
      <args> x[64] x[111] </args>
      <args> x[65] x[67] </args>
      <args> x[65] x[73] </args>
      <args> x[65] x[80] </args>
      <args> x[65] x[81] </args>
      <args> x[65] x[94] </args>
      <args> x[65] x[118] </args>
      <args> x[66] x[87] </args>
      <args> x[66] x[89] </args>
      <args> x[66] x[90] </args>
      <args> x[66] x[102] </args>
      <args> x[66] x[103] </args>
      <args> x[66] x[104] </args>
      <args> x[67] x[68] </args>
      <args> x[67] x[71] </args>
      <args> x[67] x[100] </args>
      <args> x[67] x[108] </args>
      <args> x[67] x[110] </args>
      <args> x[68] x[78] </args>
      <args> x[68] x[100] </args>
      <args> x[68] x[110] </args>
      <args> x[68] x[114] </args>
      <args> x[69] x[78] </args>
      <args> x[69] x[109] </args>
      <args> x[69] x[115] </args>
      <args> x[70] x[72] </args>
      <args> x[70] x[80] </args>
      <args> x[70] x[85] </args>
      <args> x[70] x[97] </args>
      <args> x[70] x[99] </args>
      <args> x[70] x[103] </args>
      <args> x[70] x[118] </args>
      <args> x[71] x[75] </args>
      <args> x[71] x[82] </args>
      <args> x[71] x[87] </args>
      <args> x[71] x[96] </args>
      <args> x[71] x[108] </args>
      <args> x[72] x[85] </args>
      <args> x[72] x[87] </args>
      <args> x[72] x[99] </args>
      <args> x[72] x[103] </args>
      <args> x[72] x[107] </args>
      <args> x[73] x[80] </args>
      <args> x[73] x[81] </args>
      <args> x[73] x[118] </args>
      <args> x[74] x[82] </args>
      <args> x[74] x[84] </args>
      <args> x[74] x[117] </args>
      <args> x[74] x[119] </args>
      <args> x[75] x[78] </args>
      <args> x[75] x[108] </args>
      <args> x[76] x[86] </args>
      <args> x[76] x[91] </args>
      <args> x[76] x[92] </args>
      <args> x[77] x[78] </args>
      <args> x[77] x[84] </args>
      <args> x[77] x[95] </args>
      <args> x[77] x[98] </args>
      <args> x[77] x[106] </args>
      <args> x[77] x[108] </args>
      <args> x[78] x[84] </args>
      <args> x[78] x[87] </args>
      <args> x[78] x[115] </args>
      <args> x[79] x[85] </args>
      <args> x[79] x[88] </args>
      <args> x[79] x[93] </args>
      <args> x[79] x[112] </args>
      <args> x[80] x[81] </args>
      <args> x[80] x[118] </args>
      <args> x[81] x[85] </args>
      <args> x[81] x[103] </args>
      <args> x[81] x[113] </args>
      <args> x[81] x[117] </args>
      <args> x[81] x[118] </args>
      <args> x[82] x[117] </args>
      <args> x[82] x[119] </args>
      <args> x[83] x[92] </args>
      <args> x[84] x[98] </args>
      <args> x[84] x[100] </args>
      <args> x[84] x[108] </args>
      <args> x[85] x[97] </args>
      <args> x[85] x[99] </args>
      <args> x[85] x[103] </args>
      <args> x[86] x[91] </args>
      <args> x[87] x[88] </args>
      <args> x[87] x[99] </args>
      <args> x[88] x[112] </args>
      <args> x[89] x[90] </args>
      <args> x[89] x[102] </args>
      <args> x[89] x[104] </args>
      <args> x[90] x[97] </args>
      <args> x[90] x[102] </args>
      <args> x[90] x[104] </args>
      <args> x[90] x[110] </args>
      <args> x[92] x[95] </args>
      <args> x[92] x[105] </args>
      <args> x[93] x[112] </args>
      <args> x[93] x[115] </args>
      <args> x[93] x[116] </args>
      <args> x[93] x[117] </args>
      <args> x[94] x[107] </args>
      <args> x[94] x[111] </args>
      <args> x[95] x[98] </args>
      <args> x[95] x[106] </args>
      <args> x[96] x[101] </args>
      <args> x[96] x[107] </args>
      <args> x[96] x[110] </args>
      <args> x[96] x[116] </args>
      <args> x[97] x[99] </args>
      <args> x[97] x[103] </args>
      <args> x[97] x[110] </args>
      <args> x[98] x[100] </args>
      <args> x[98] x[106] </args>
      <args> x[99] x[103] </args>
      <args> x[99] x[111] </args>
      <args> x[100] x[109] </args>
      <args> x[100] x[114] </args>
      <args> x[100] x[115] </args>
      <args> x[101] x[103] </args>
      <args> x[101] x[113] </args>
      <args> x[101] x[116] </args>
      <args> x[102] x[104] </args>
      <args> x[104] x[111] </args>
      <args> x[104] x[116] </args>
      <args> x[105] x[109] </args>
      <args> x[105] x[115] </args>
      <args> x[106] x[109] </args>
      <args> x[107] x[111] </args>
      <args> x[107] x[112] </args>
      <args> x[108] x[119] </args>
      <args> x[109] x[115] </args>
      <args> x[110] x[114] </args>
      <args> x[113] x[114] </args>
      <args> x[115] x[118] </args>
      <args> x[117] x[119] </args>
    </group>
  </constraints>
  <objectives>
    <minimize type="maximum"> x[] </minimize>
  </objectives>
</instance>
